60
1 0 10
2 0 5
2 1 6
3 0 7
3 1 10
3 2 5
4 0 7
4 1 6
4 2 1
4 3 7
5 0 3
5 1 8
5 2 1
5 3 10
5 4 1
6 0 2
6 1 2
6 2 7
6 3 4
6 4 1
6 5 2
7 0 3
7 1 3
7 2 4
7 3 5
7 4 1
7 5 10
7 6 6
8 0 8
8 1 1
8 2 9
8 3 10
8 4 8
8 5 7
8 6 6
8 7 9
9 0 9
9 1 8
9 2 6
9 3 2
9 4 2
9 5 5
9 6 5
9 7 2
9 8 5
10 0 6
10 1 3
10 2 10
10 3 4
10 4 1
10 5 2
10 6 9
10 7 8
10 8 7
10 9 1
11 0 5
11 1 8
11 2 3
11 3 5
11 4 9
11 5 8
11 6 7
11 7 2
11 8 7
11 9 8
11 10 2
12 0 5
12 1 5
12 2 7
12 3 7
12 4 10
12 5 4
12 6 7
12 7 3
12 8 6
12 9 3
12 10 3
12 11 1
13 0 3
13 1 4
13 2 1
13 3 9
13 4 7
13 5 2
13 6 7
13 7 6
13 8 6
13 9 2
13 10 5
13 11 6
13 12 2
14 0 10
14 1 7
14 2 8
14 3 8
14 4 8
14 5 6
14 6 9
14 7 6
14 8 7
14 9 2
14 10 1
14 11 7
14 12 8
14 13 7
15 0 2
15 1 10
15 2 7
15 3 9
15 4 2
15 5 9
15 6 1
15 7 1
15 8 5
15 9 6
15 10 10
15 11 1
15 12 5
15 13 7
15 14 1
16 0 2
16 1 1
16 2 1
16 3 3
16 4 7
16 5 9
16 6 10
16 7 1
16 8 7
16 9 10
16 10 7
16 11 7
16 12 2
16 13 7
16 14 10
16 15 9
17 0 5
17 1 10
17 2 6
17 3 8
17 4 8
17 5 1
17 6 2
17 7 3
17 8 2
17 9 1
17 10 4
17 11 9
17 12 6
17 13 7
17 14 1
17 15 3
17 16 9
18 0 9
18 1 9
18 2 7
18 3 2
18 4 6
18 5 7
18 6 6
18 7 5
18 8 8
18 9 9
18 10 9
18 11 8
18 12 10
18 13 5
18 14 10
18 15 7
18 16 4
18 17 9
19 0 3
19 1 7
19 2 3
19 3 3
19 4 2
19 5 8
19 6 2
19 7 6
19 8 5
19 9 7
19 10 7
19 11 6
19 12 5
19 13 8
19 14 8
19 15 6
19 16 9
19 17 5
19 18 10
20 0 3
20 1 10
20 2 1
20 3 9
20 4 6
20 5 5
20 6 1
20 7 1
20 8 9
20 9 2
20 10 9
20 11 7
20 12 8
20 13 3
20 14 2
20 15 9
20 16 10
20 17 3
20 18 10
20 19 4
21 0 1
21 1 9
21 2 10
21 3 7
21 4 2
21 5 9
21 6 10
21 7 9
21 8 8
21 9 8
21 10 1
21 11 9
21 12 6
21 13 10
21 14 9
21 15 2
21 16 1
21 17 7
21 18 9
21 19 10
21 20 1
22 0 4
22 1 2
22 2 5
22 3 7
22 4 10
22 5 10
22 6 10
22 7 2
22 8 1
22 9 4
22 10 4
22 11 5
22 12 10
22 13 8
22 14 9
22 15 7
22 16 1
22 17 1
22 18 6
22 19 1
22 20 2
22 21 3
23 0 10
23 1 6
23 2 10
23 3 2
23 4 2
23 5 9
23 6 3
23 7 3
23 8 7
23 9 9
23 10 10
23 11 10
23 12 2
23 13 10
23 14 9
23 15 5
23 16 9
23 17 5
23 18 8
23 19 10
23 20 2
23 21 7
23 22 7
24 0 6
24 1 2
24 2 4
24 3 7
24 4 1
24 5 3
24 6 7
24 7 8
24 8 3
24 9 9
24 10 6
24 11 9
24 12 5
24 13 6
24 14 4
24 15 10
24 16 9
24 17 3
24 18 3
24 19 8
24 20 2
24 21 3
24 22 5
24 23 3
25 0 10
25 1 8
25 2 9
25 3 7
25 4 3
25 5 5
25 6 4
25 7 8
25 8 2
25 9 1
25 10 9
25 11 10
25 12 2
25 13 7
25 14 6
25 15 7
25 16 6
25 17 1
25 18 8
25 19 2
25 20 4
25 21 1
25 22 7
25 23 10
25 24 10
26 0 6
26 1 7
26 2 1
26 3 2
26 4 7
26 5 8
26 6 8
26 7 2
26 8 10
26 9 2
26 10 7
26 11 10
26 12 1
26 13 10
26 14 2
26 15 3
26 16 5
26 17 10
26 18 8
26 19 10
26 20 10
26 21 9
26 22 2
26 23 9
26 24 3
26 25 7
27 0 10
27 1 2
27 2 6
27 3 8
27 4 10
27 5 4
27 6 1
27 7 6
27 8 4
27 9 1
27 10 3
27 11 6
27 12 3
27 13 7
27 14 5
27 15 5
27 16 5
27 17 9
27 18 2
27 19 7
27 20 9
27 21 10
27 22 10
27 23 7
27 24 5
27 25 2
27 26 8
28 0 6
28 1 6
28 2 8
28 3 3
28 4 4
28 5 5
28 6 9
28 7 9
28 8 3
28 9 10
28 10 6
28 11 2
28 12 10
28 13 4
28 14 6
28 15 3
28 16 7
28 17 10
28 18 1
28 19 3
28 20 4
28 21 2
28 22 9
28 23 1
28 24 2
28 25 1
28 26 9
28 27 3
29 0 3
29 1 9
29 2 5
29 3 1
29 4 7
29 5 10
29 6 8
29 7 9
29 8 10
29 9 3
29 10 7
29 11 8
29 12 2
29 13 5
29 14 2
29 15 5
29 16 2
29 17 2
29 18 1
29 19 7
29 20 2
29 21 4
29 22 8
29 23 7
29 24 7
29 25 4
29 26 10
29 27 3
29 28 7
30 0 1
30 1 10
30 2 7
30 3 8
30 4 9
30 5 7
30 6 9
30 7 5
30 8 7
30 9 4
30 10 6
30 11 2
30 12 2
30 13 6
30 14 6
30 15 3
30 16 10
30 17 5
30 18 4
30 19 4
30 20 4
30 21 9
30 22 5
30 23 2
30 24 8
30 25 2
30 26 8
30 27 4
30 28 9
30 29 9
31 0 1
31 1 10
31 2 9
31 3 4
31 4 2
31 5 2
31 6 9
31 7 2
31 8 4
31 9 5
31 10 5
31 11 6
31 12 7
31 13 5
31 14 9
31 15 8
31 16 8
31 17 4
31 18 3
31 19 6
31 20 2
31 21 7
31 22 9
31 23 3
31 24 3
31 25 4
31 26 7
31 27 1
31 28 10
31 29 4
31 30 3
32 0 3
32 1 9
32 2 10
32 3 5
32 4 5
32 5 2
32 6 5
32 7 3
32 8 5
32 9 7
32 10 3
32 11 9
32 12 2
32 13 2
32 14 8
32 15 3
32 16 8
32 17 9
32 18 9
32 19 10
32 20 9
32 21 1
32 22 9
32 23 3
32 24 2
32 25 6
32 26 9
32 27 4
32 28 1
32 29 3
32 30 9
32 31 6
33 0 3
33 1 7
33 2 10
33 3 5
33 4 5
33 5 9
33 6 1
33 7 5
33 8 4
33 9 10
33 10 3
33 11 1
33 12 4
33 13 8
33 14 4
33 15 10
33 16 10
33 17 2
33 18 10
33 19 10
33 20 9
33 21 8
33 22 7
33 23 1
33 24 2
33 25 4
33 26 2
33 27 9
33 28 1
33 29 8
33 30 7
33 31 7
33 32 9
34 0 5
34 1 1
34 2 3
34 3 10
34 4 5
34 5 2
34 6 9
34 7 7
34 8 8
34 9 8
34 10 7
34 11 9
34 12 4
34 13 1
34 14 4
34 15 2
34 16 5
34 17 3
34 18 7
34 19 7
34 20 8
34 21 7
34 22 10
34 23 4
34 24 3
34 25 2
34 26 10
34 27 6
34 28 8
34 29 6
34 30 8
34 31 5
34 32 4
34 33 9
35 0 6
35 1 1
35 2 10
35 3 5
35 4 7
35 5 3
35 6 1
35 7 9
35 8 7
35 9 8
35 10 6
35 11 8
35 12 7
35 13 10
35 14 8
35 15 3
35 16 5
35 17 6
35 18 8
35 19 10
35 20 8
35 21 2
35 22 1
35 23 8
35 24 1
35 25 2
35 26 7
35 27 10
35 28 5
35 29 9
35 30 7
35 31 6
35 32 8
35 33 9
35 34 10
36 0 1
36 1 9
36 2 8
36 3 7
36 4 3
36 5 4
36 6 5
36 7 1
36 8 6
36 9 7
36 10 9
36 11 1
36 12 4
36 13 1
36 14 4
36 15 2
36 16 10
36 17 3
36 18 6
36 19 2
36 20 4
36 21 10
36 22 10
36 23 10
36 24 9
36 25 8
36 26 1
36 27 4
36 28 5
36 29 5
36 30 10
36 31 6
36 32 5
36 33 10
36 34 8
36 35 6
37 0 5
37 1 4
37 2 3
37 3 7
37 4 8
37 5 5
37 6 1
37 7 10
37 8 6
37 9 1
37 10 6
37 11 4
37 12 4
37 13 9
37 14 7
37 15 1
37 16 1
37 17 1
37 18 8
37 19 9
37 20 10
37 21 8
37 22 7
37 23 4
37 24 3
37 25 7
37 26 7
37 27 7
37 28 4
37 29 3
37 30 5
37 31 7
37 32 1
37 33 2
37 34 10
37 35 6
37 36 5
38 0 9
38 1 6
38 2 6
38 3 10
38 4 4
38 5 3
38 6 3
38 7 2
38 8 3
38 9 7
38 10 3
38 11 10
38 12 7
38 13 8
38 14 6
38 15 1
38 16 8
38 17 1
38 18 5
38 19 8
38 20 3
38 21 9
38 22 3
38 23 7
38 24 4
38 25 8
38 26 6
38 27 4
38 28 5
38 29 9
38 30 8
38 31 7
38 32 7
38 33 9
38 34 5
38 35 10
38 36 4
38 37 10
39 0 7
39 1 3
39 2 2
39 3 1
39 4 6
39 5 2
39 6 9
39 7 9
39 8 9
39 9 7
39 10 1
39 11 8
39 12 8
39 13 10
39 14 6
39 15 7
39 16 10
39 17 1
39 18 3
39 19 8
39 20 10
39 21 10
39 22 8
39 23 5
39 24 3
39 25 2
39 26 4
39 27 1
39 28 6
39 29 6
39 30 5
39 31 6
39 32 4
39 33 8
39 34 5
39 35 2
39 36 6
39 37 3
39 38 5
40 0 10
40 1 3
40 2 1
40 3 9
40 4 4
40 5 4
40 6 6
40 7 6
40 8 7
40 9 3
40 10 7
40 11 4
40 12 7
40 13 8
40 14 4
40 15 6
40 16 10
40 17 9
40 18 5
40 19 10
40 20 5
40 21 10
40 22 3
40 23 7
40 24 2
40 25 5
40 26 6
40 27 10
40 28 1
40 29 7
40 30 7
40 31 5
40 32 6
40 33 8
40 34 2
40 35 3
40 36 1
40 37 4
40 38 5
40 39 5
41 0 5
41 1 2
41 2 2
41 3 9
41 4 2
41 5 8
41 6 5
41 7 1
41 8 3
41 9 10
41 10 7
41 11 2
41 12 10
41 13 10
41 14 9
41 15 6
41 16 10
41 17 3
41 18 5
41 19 4
41 20 9
41 21 1
41 22 4
41 23 8
41 24 9
41 25 8
41 26 6
41 27 10
41 28 1
41 29 6
41 30 2
41 31 8
41 32 1
41 33 4
41 34 10
41 35 7
41 36 9
41 37 10
41 38 1
41 39 9
41 40 9
42 0 10
42 1 5
42 2 10
42 3 4
42 4 1
42 5 3
42 6 2
42 7 6
42 8 5
42 9 9
42 10 3
42 11 3
42 12 7
42 13 9
42 14 1
42 15 7
42 16 10
42 17 1
42 18 5
42 19 2
42 20 7
42 21 9
42 22 2
42 23 3
42 24 9
42 25 3
42 26 2
42 27 1
42 28 1
42 29 10
42 30 4
42 31 8
42 32 5
42 33 8
42 34 9
42 35 9
42 36 5
42 37 8
42 38 2
42 39 1
42 40 10
42 41 1
43 0 8
43 1 4
43 2 1
43 3 8
43 4 9
43 5 3
43 6 5
43 7 2
43 8 9
43 9 7
43 10 1
43 11 5
43 12 8
43 13 10
43 14 10
43 15 10
43 16 10
43 17 7
43 18 6
43 19 6
43 20 4
43 21 4
43 22 6
43 23 10
43 24 5
43 25 5
43 26 4
43 27 6
43 28 3
43 29 10
43 30 3
43 31 5
43 32 9
43 33 2
43 34 1
43 35 3
43 36 5
43 37 1
43 38 5
43 39 2
43 40 4
43 41 5
43 42 8
44 0 2
44 1 2
44 2 7
44 3 4
44 4 3
44 5 2
44 6 7
44 7 7
44 8 3
44 9 1
44 10 4
44 11 9
44 12 5
44 13 6
44 14 4
44 15 9
44 16 8
44 17 4
44 18 2
44 19 6
44 20 5
44 21 8
44 22 7
44 23 10
44 24 5
44 25 5
44 26 10
44 27 1
44 28 1
44 29 1
44 30 7
44 31 10
44 32 9
44 33 3
44 34 10
44 35 9
44 36 9
44 37 9
44 38 9
44 39 3
44 40 1
44 41 7
44 42 9
44 43 1
45 0 1
45 1 2
45 2 2
45 3 6
45 4 5
45 5 8
45 6 6
45 7 3
45 8 4
45 9 4
45 10 6
45 11 4
45 12 9
45 13 2
45 14 2
45 15 5
45 16 4
45 17 9
45 18 9
45 19 7
45 20 6
45 21 6
45 22 8
45 23 4
45 24 8
45 25 8
45 26 10
45 27 4
45 28 3
45 29 1
45 30 9
45 31 2
45 32 5
45 33 1
45 34 9
45 35 9
45 36 5
45 37 7
45 38 3
45 39 9
45 40 10
45 41 6
45 42 5
45 43 3
45 44 7
46 0 10
46 1 7
46 2 9
46 3 3
46 4 1
46 5 8
46 6 9
46 7 5
46 8 6
46 9 9
46 10 7
46 11 1
46 12 9
46 13 3
46 14 10
46 15 10
46 16 7
46 17 4
46 18 3
46 19 2
46 20 1
46 21 3
46 22 4
46 23 4
46 24 10
46 25 5
46 26 4
46 27 10
46 28 10
46 29 2
46 30 3
46 31 3
46 32 10
46 33 6
46 34 10
46 35 1
46 36 1
46 37 1
46 38 10
46 39 2
46 40 1
46 41 3
46 42 4
46 43 2
46 44 10
46 45 8
47 0 9
47 1 3
47 2 3
47 3 7
47 4 2
47 5 8
47 6 7
47 7 7
47 8 5
47 9 10
47 10 8
47 11 2
47 12 7
47 13 7
47 14 7
47 15 8
47 16 6
47 17 6
47 18 10
47 19 9
47 20 4
47 21 7
47 22 2
47 23 8
47 24 3
47 25 10
47 26 7
47 27 5
47 28 3
47 29 4
47 30 9
47 31 6
47 32 3
47 33 9
47 34 3
47 35 7
47 36 10
47 37 6
47 38 3
47 39 10
47 40 4
47 41 2
47 42 6
47 43 3
47 44 8
47 45 7
47 46 6
48 0 9
48 1 8
48 2 4
48 3 3
48 4 6
48 5 1
48 6 9
48 7 7
48 8 5
48 9 3
48 10 4
48 11 2
48 12 2
48 13 3
48 14 10
48 15 7
48 16 7
48 17 5
48 18 4
48 19 2
48 20 9
48 21 3
48 22 3
48 23 6
48 24 2
48 25 1
48 26 7
48 27 9
48 28 4
48 29 4
48 30 1
48 31 9
48 32 3
48 33 6
48 34 1
48 35 10
48 36 10
48 37 8
48 38 9
48 39 6
48 40 9
48 41 3
48 42 5
48 43 1
48 44 4
48 45 4
48 46 1
48 47 10
49 0 10
49 1 10
49 2 7
49 3 10
49 4 9
49 5 4
49 6 5
49 7 9
49 8 9
49 9 3
49 10 8
49 11 5
49 12 7
49 13 2
49 14 2
49 15 10
49 16 5
49 17 5
49 18 6
49 19 2
49 20 3
49 21 5
49 22 6
49 23 6
49 24 1
49 25 6
49 26 5
49 27 9
49 28 1
49 29 8
49 30 4
49 31 9
49 32 10
49 33 9
49 34 4
49 35 4
49 36 4
49 37 4
49 38 10
49 39 1
49 40 6
49 41 10
49 42 1
49 43 9
49 44 2
49 45 4
49 46 6
49 47 9
49 48 5
50 0 4
50 1 3
50 2 7
50 3 3
50 4 5
50 5 2
50 6 2
50 7 2
50 8 9
50 9 10
50 10 3
50 11 4
50 12 2
50 13 7
50 14 10
50 15 8
50 16 3
50 17 4
50 18 5
50 19 9
50 20 8
50 21 2
50 22 2
50 23 1
50 24 8
50 25 1
50 26 5
50 27 8
50 28 2
50 29 1
50 30 6
50 31 9
50 32 8
50 33 8
50 34 2
50 35 10
50 36 3
50 37 3
50 38 1
50 39 6
50 40 1
50 41 1
50 42 1
50 43 2
50 44 6
50 45 7
50 46 4
50 47 1
50 48 1
50 49 9
51 0 9
51 1 2
51 2 4
51 3 7
51 4 5
51 5 10
51 6 5
51 7 4
51 8 6
51 9 4
51 10 8
51 11 1
51 12 1
51 13 9
51 14 9
51 15 2
51 16 8
51 17 8
51 18 6
51 19 7
51 20 9
51 21 2
51 22 9
51 23 6
51 24 1
51 25 2
51 26 4
51 27 2
51 28 3
51 29 9
51 30 8
51 31 2
51 32 6
51 33 2
51 34 5
51 35 3
51 36 4
51 37 1
51 38 4
51 39 6
51 40 2
51 41 7
51 42 2
51 43 4
51 44 5
51 45 10
51 46 7
51 47 4
51 48 3
51 49 4
51 50 10
52 0 5
52 1 9
52 2 4
52 3 2
52 4 7
52 5 10
52 6 10
52 7 8
52 8 10
52 9 1
52 10 8
52 11 4
52 12 1
52 13 8
52 14 4
52 15 7
52 16 7
52 17 5
52 18 6
52 19 8
52 20 9
52 21 7
52 22 9
52 23 6
52 24 3
52 25 8
52 26 1
52 27 2
52 28 7
52 29 9
52 30 6
52 31 3
52 32 4
52 33 4
52 34 6
52 35 7
52 36 6
52 37 2
52 38 5
52 39 3
52 40 2
52 41 4
52 42 2
52 43 5
52 44 7
52 45 7
52 46 10
52 47 4
52 48 9
52 49 1
52 50 8
52 51 10
53 0 6
53 1 2
53 2 10
53 3 5
53 4 10
53 5 6
53 6 10
53 7 8
53 8 1
53 9 1
53 10 4
53 11 8
53 12 7
53 13 10
53 14 5
53 15 7
53 16 9
53 17 9
53 18 5
53 19 3
53 20 1
53 21 8
53 22 10
53 23 8
53 24 8
53 25 8
53 26 4
53 27 4
53 28 6
53 29 5
53 30 3
53 31 4
53 32 3
53 33 10
53 34 2
53 35 4
53 36 3
53 37 5
53 38 8
53 39 7
53 40 7
53 41 8
53 42 5
53 43 8
53 44 9
53 45 2
53 46 9
53 47 4
53 48 3
53 49 8
53 50 10
53 51 9
53 52 3
54 0 7
54 1 2
54 2 7
54 3 5
54 4 3
54 5 9
54 6 3
54 7 5
54 8 8
54 9 5
54 10 2
54 11 4
54 12 9
54 13 3
54 14 1
54 15 4
54 16 4
54 17 7
54 18 3
54 19 2
54 20 8
54 21 6
54 22 10
54 23 9
54 24 7
54 25 6
54 26 5
54 27 5
54 28 2
54 29 4
54 30 1
54 31 1
54 32 3
54 33 3
54 34 3
54 35 9
54 36 4
54 37 6
54 38 4
54 39 9
54 40 5
54 41 1
54 42 4
54 43 6
54 44 7
54 45 3
54 46 1
54 47 1
54 48 1
54 49 7
54 50 7
54 51 1
54 52 2
54 53 2
55 0 10
55 1 7
55 2 7
55 3 3
55 4 1
55 5 10
55 6 9
55 7 3
55 8 5
55 9 8
55 10 7
55 11 2
55 12 1
55 13 4
55 14 1
55 15 3
55 16 2
55 17 6
55 18 10
55 19 1
55 20 7
55 21 1
55 22 7
55 23 6
55 24 9
55 25 6
55 26 3
55 27 4
55 28 1
55 29 4
55 30 10
55 31 6
55 32 5
55 33 3
55 34 7
55 35 3
55 36 8
55 37 2
55 38 8
55 39 6
55 40 3
55 41 6
55 42 4
55 43 2
55 44 5
55 45 5
55 46 10
55 47 5
55 48 3
55 49 2
55 50 10
55 51 7
55 52 3
55 53 2
55 54 7
56 0 3
56 1 8
56 2 1
56 3 6
56 4 6
56 5 8
56 6 7
56 7 10
56 8 3
56 9 10
56 10 9
56 11 1
56 12 8
56 13 5
56 14 3
56 15 1
56 16 1
56 17 2
56 18 3
56 19 6
56 20 5
56 21 9
56 22 6
56 23 3
56 24 1
56 25 4
56 26 5
56 27 6
56 28 7
56 29 2
56 30 5
56 31 9
56 32 10
56 33 6
56 34 2
56 35 4
56 36 3
56 37 6
56 38 9
56 39 9
56 40 6
56 41 7
56 42 4
56 43 10
56 44 5
56 45 2
56 46 10
56 47 2
56 48 7
56 49 1
56 50 4
56 51 8
56 52 8
56 53 2
56 54 8
56 55 7
57 0 7
57 1 2
57 2 9
57 3 1
57 4 2
57 5 3
57 6 7
57 7 1
57 8 9
57 9 9
57 10 6
57 11 4
57 12 2
57 13 8
57 14 2
57 15 10
57 16 3
57 17 6
57 18 6
57 19 7
57 20 7
57 21 1
57 22 6
57 23 7
57 24 10
57 25 5
57 26 8
57 27 9
57 28 1
57 29 5
57 30 3
57 31 2
57 32 9
57 33 3
57 34 7
57 35 3
57 36 9
57 37 3
57 38 5
57 39 8
57 40 1
57 41 7
57 42 8
57 43 3
57 44 5
57 45 10
57 46 2
57 47 3
57 48 1
57 49 3
57 50 9
57 51 10
57 52 10
57 53 3
57 54 8
57 55 6
57 56 6
58 0 8
58 1 9
58 2 3
58 3 1
58 4 10
58 5 6
58 6 4
58 7 9
58 8 1
58 9 8
58 10 7
58 11 10
58 12 9
58 13 2
58 14 3
58 15 5
58 16 3
58 17 3
58 18 9
58 19 6
58 20 3
58 21 5
58 22 1
58 23 3
58 24 8
58 25 5
58 26 2
58 27 5
58 28 1
58 29 7
58 30 5
58 31 7
58 32 7
58 33 6
58 34 9
58 35 7
58 36 8
58 37 10
58 38 6
58 39 9
58 40 5
58 41 7
58 42 1
58 43 8
58 44 9
58 45 5
58 46 4
58 47 5
58 48 5
58 49 3
58 50 6
58 51 2
58 52 9
58 53 6
58 54 3
58 55 10
58 56 5
58 57 9
59 0 5
59 1 4
59 2 2
59 3 7
59 4 10
59 5 10
59 6 7
59 7 7
59 8 4
59 9 9
59 10 3
59 11 3
59 12 7
59 13 1
59 14 5
59 15 3
59 16 10
59 17 9
59 18 1
59 19 1
59 20 4
59 21 2
59 22 1
59 23 8
59 24 8
59 25 4
59 26 3
59 27 1
59 28 1
59 29 7
59 30 3
59 31 1
59 32 4
59 33 9
59 34 5
59 35 2
59 36 1
59 37 8
59 38 4
59 39 5
59 40 10
59 41 10
59 42 1
59 43 5
59 44 3
59 45 8
59 46 10
59 47 10
59 48 10
59 49 9
59 50 5
59 51 9
59 52 8
59 53 10
59 54 2
59 55 4
59 56 4
59 57 10
59 58 9
